data_generator/11.atsp
NAME: 11
TYPE: ATSP
DIMENSION: 11
EDGE_WEIGHT_TYPE: EXPLICIT
EDGE_WEIGHT_FORMAT: FULL_MATRIX
EDGE_WEIGHT_SECTION
 999999 42 4 98 59 5 3 78 6 95 11
 60 999999 11 36 70 27 55 37 78 32 26
 63 77 999999 86 99 85 36 16 23 100 76
 95 82 66 999999 94 8 100 65 90 2 74
 26 92 18 85 999999 60 92 24 35 9 12
 64 74 38 62 31 999999 88 83 50 72 78
 52 69 83 77 89 42 999999 99 92 65 26
 80 98 25 31 48 22 49 999999 98 8 81
 27 23 78 97 80 3 86 35 999999 42 51
 62 38 100 10 48 15 49 15 21 999999 17
 2 48 40 94 24 81 99 45 80 18 999999
EOF
