data_generator/11.opt.tour
NAME : 11.opt.tour
TYPE : TOUR
DIMENSION : 11
COMMENT : OPTIMAL_COST = 201
TOUR_SECTION
1
7
2
3
8
4
10
9
6
5
11
-1
EOF
